     Program PWSCF v.6.4.1 starts on  8Nov2023 at 12:47:43

     Waiting for input...
     Reading input from standard input

     Current dimensions of program PWSCF are:
     Max number of different atomic species (ntypx) = 10
     Max number of k-points (npk) =  40000
     Max angular momentum in pseudopotentials (lmaxx) =  3
               file Zn.pbe-dnl-rrkjus_psl.1.0.0.UPF: wavefunction(s)  3D renormalized

     Subspace diagonalization in iterative solution of the eigenvalue problem:
     a serial algorithm will be used

     bravais-lattice index     =            4
     lattice parameter (alat)  =       6.0849  a.u.
     unit-cell volume          =     315.0960 (a.u.)^3
     number of atoms/cell      =            4
     number of atomic types    =            2
     number of electrons       =        36.00
     number of Kohn-Sham states=           30
     kinetic-energy cutoff     =     100.0000  Ry
     charge density cutoff     =    1200.0000  Ry
     convergence threshold     =      1.0E-08
     mixing beta               =       0.5000
     number of iterations used =            8  plain     mixing
     Exchange-correlation      = PBE ( 1  4  3  4 0 0)

     celldm(1)=   6.084921  celldm(2)=   0.000000  celldm(3)=   1.614907
     celldm(4)=   0.000000  celldm(5)=   0.000000  celldm(6)=   0.000000

     crystal axes: (cart. coord. in units of alat)
               a(1) = (   1.000000   0.000000   0.000000 )
               a(2) = (  -0.500000   0.866025   0.000000 )
               a(3) = (   0.000000   0.000000   1.614907 )

     reciprocal axes: (cart. coord. in units 2 pi/alat)
               b(1) = (  1.000000  0.577350 -0.000000 )
               b(2) = (  0.000000  1.154701  0.000000 )
               b(3) = (  0.000000 -0.000000  0.619231 )

     PseudoPot. # 1 for Zn read from file:
     ../Pseudo/Zn.pbe-dnl-rrkjus_psl.1.0.0.UPF
     MD5 check sum: 7f56cabf9682ed8c977c2f7d0c5985c5
     Pseudo is Ultrasoft + core correction, Zval = 12.0
     Generated using "atomic" code by A. Dal Corso v.6.2.2
     Using radial grid of 1201 points,  6 beta functions with:
                l(1) =   0
                l(2) =   0
                l(3) =   1
                l(4) =   1
                l(5) =   2
                l(6) =   2
     Q(r) pseudized with 0 coefficients

     PseudoPot. # 2 for O  read from file:
     ../Pseudo/O.pbe-n-rrkjus_psl.1.0.0.UPF
     MD5 check sum: 91400c9766925bcf19f520983a725ff0
     Pseudo is Ultrasoft + core correction, Zval =  6.0
     Generated using "atomic" code by A. Dal Corso v.6.3MaX
     Using radial grid of 1095 points,  4 beta functions with:
                l(1) =   0
                l(2) =   0
                l(3) =   1
                l(4) =   1
     Q(r) pseudized with 0 coefficients

     atomic species   valence    mass     pseudopotential
        Zn            12.00    65.38000     Zn( 1.00)
        O              6.00    15.99000     O ( 1.00)

     12 Sym. Ops. (no inversion) found ( 6 have fractional translation)

   Cartesian axes

     site n.     atom                  positions (alat units)
         1           Zn  tau(   1) = (  -0.0000005   0.5773506   0.0000000  )
         2           Zn  tau(   2) = (   0.5000005   0.2886748   0.8074534  )
         3           O   tau(   3) = (  -0.0000005   0.5773506   0.6055901  )
         4           O   tau(   4) = (   0.5000005   0.2886748   1.4130435  )

     number of k points=    50
                       cart. coord. in units 2pi/alat
        k(    1) = (   0.0000000   0.0000000   0.0000000), wk =   0.0039062
        k(    2) = (   0.0000000   0.0000000   0.0774038), wk =   0.0078125
        k(    3) = (   0.0000000   0.0000000   0.1548077), wk =   0.0078125
        k(    4) = (   0.0000000   0.0000000   0.2322115), wk =   0.0078125
        k(    5) = (   0.0000000   0.0000000  -0.3096154), wk =   0.0039062
        k(    6) = (   0.0000000   0.1443376   0.0000000), wk =   0.0234375
        k(    7) = (   0.0000000   0.1443376   0.0774038), wk =   0.0468750
        k(    8) = (   0.0000000   0.1443376   0.1548077), wk =   0.0468750
        k(    9) = (   0.0000000   0.1443376   0.2322115), wk =   0.0468750
        k(   10) = (   0.0000000   0.1443376  -0.3096154), wk =   0.0234375
        k(   11) = (   0.0000000   0.2886751   0.0000000), wk =   0.0234375
        k(   12) = (   0.0000000   0.2886751   0.0774038), wk =   0.0468750
        k(   13) = (   0.0000000   0.2886751   0.1548077), wk =   0.0468750
        k(   14) = (   0.0000000   0.2886751   0.2322115), wk =   0.0468750
        k(   15) = (   0.0000000   0.2886751  -0.3096154), wk =   0.0234375
        k(   16) = (   0.0000000   0.4330127   0.0000000), wk =   0.0234375
        k(   17) = (   0.0000000   0.4330127   0.0774038), wk =   0.0468750
        k(   18) = (   0.0000000   0.4330127   0.1548077), wk =   0.0468750
        k(   19) = (   0.0000000   0.4330127   0.2322115), wk =   0.0468750
        k(   20) = (   0.0000000   0.4330127  -0.3096154), wk =   0.0234375
        k(   21) = (   0.0000000  -0.5773503   0.0000000), wk =   0.0117188
        k(   22) = (   0.0000000  -0.5773503   0.0774038), wk =   0.0234375
        k(   23) = (   0.0000000  -0.5773503   0.1548077), wk =   0.0234375
        k(   24) = (   0.0000000  -0.5773503   0.2322115), wk =   0.0234375
        k(   25) = (   0.0000000  -0.5773503  -0.3096154), wk =   0.0117188
        k(   26) = (   0.1250000   0.2165064   0.0000000), wk =   0.0234375
        k(   27) = (   0.1250000   0.2165064   0.0774038), wk =   0.0468750
        k(   28) = (   0.1250000   0.2165064   0.1548077), wk =   0.0468750
        k(   29) = (   0.1250000   0.2165064   0.2322115), wk =   0.0468750
        k(   30) = (   0.1250000   0.2165064  -0.3096154), wk =   0.0234375
        k(   31) = (   0.1250000   0.3608439   0.0000000), wk =   0.0468750
        k(   32) = (   0.1250000   0.3608439   0.0774038), wk =   0.0937500
        k(   33) = (   0.1250000   0.3608439   0.1548077), wk =   0.0937500
        k(   34) = (   0.1250000   0.3608439   0.2322115), wk =   0.0937500
        k(   35) = (   0.1250000   0.3608439  -0.3096154), wk =   0.0468750
        k(   36) = (   0.1250000   0.5051815   0.0000000), wk =   0.0468750
        k(   37) = (   0.1250000   0.5051815   0.0774038), wk =   0.0937500
        k(   38) = (   0.1250000   0.5051815   0.1548077), wk =   0.0937500
        k(   39) = (   0.1250000   0.5051815   0.2322115), wk =   0.0937500
        k(   40) = (   0.1250000   0.5051815  -0.3096154), wk =   0.0468750
        k(   41) = (   0.2500000   0.4330127   0.0000000), wk =   0.0234375
        k(   42) = (   0.2500000   0.4330127   0.0774038), wk =   0.0468750
        k(   43) = (   0.2500000   0.4330127   0.1548077), wk =   0.0468750
        k(   44) = (   0.2500000   0.4330127   0.2322115), wk =   0.0468750
        k(   45) = (   0.2500000   0.4330127  -0.3096154), wk =   0.0234375
        k(   46) = (   0.2500000   0.5773503   0.0000000), wk =   0.0234375
        k(   47) = (   0.2500000   0.5773503   0.0774038), wk =   0.0468750
        k(   48) = (   0.2500000   0.5773503   0.1548077), wk =   0.0468750
        k(   49) = (   0.2500000   0.5773503   0.2322115), wk =   0.0468750
        k(   50) = (   0.2500000   0.5773503  -0.3096154), wk =   0.0234375

     Initial potential from superposition of free atoms

     starting charge   35.99255, renormalised to   36.00000
     Starting wfcs are   26 randomized atomic wfcs +    4 random wfcs

     Self-consistent Calculation

     iteration #  1     ecut=   100.00 Ry     beta= 0.50
     Davidson diagonalization with overlap
     ethr =  1.00E-02,  avg # of iterations =  4.7

     total energy              =    -361.40068574 Ry
     Harris-Foulkes estimate   =    -361.83772419 Ry
     estimated scf accuracy    <       0.72822997 Ry

[...]

     total energy              =    -361.64374934 Ry
     Harris-Foulkes estimate   =    -361.64374953 Ry
     estimated scf accuracy    <       0.00000058 Ry

     iteration #  9     ecut=   100.00 Ry     beta= 0.50
     Davidson diagonalization with overlap
     ethr =  1.61E-09,  avg # of iterations =  2.4

     End of self-consistent calculation

          k = 0.0000 0.0000 0.0000 (  5323 PWs)   bands (ev):

   -10.6805  -9.9275   1.7410   1.7722   1.7916   1.7917   2.0106   2.0106
     3.0154   3.0154   3.2374   3.2374   3.4913   6.7115   6.7116   7.4925
     7.5606   7.5607   8.3826  12.9047  15.8312  20.6150  20.6151  21.6832
    21.9121  21.9122  24.2428  25.8677  25.8678  27.5750

[...]

          k = 0.2500 0.5774-0.3096 (  5328 PWs)   bands (ev):

    -9.7950  -9.7950   1.6250   1.6250   2.0216   2.0216   2.5099   2.5099
     3.0691   3.0692   3.5242   3.5242   3.8372   3.8372   5.0238   5.0238
     6.2510   6.2511  14.8287  14.8287  16.1033  16.1033  16.8962  16.8962
    22.8121  22.8121  24.0186  24.0186  27.5509  27.5510

     highest occupied, lowest unoccupied level (ev):     7.5607    8.3826

!    total energy              =    -361.64374946 Ry
     Harris-Foulkes estimate   =    -361.64374946 Ry
     estimated scf accuracy    <          1.8E-09 Ry

     The total energy is the sum of the following terms:

     one-electron contribution =    -149.26277337 Ry
     hartree contribution      =     116.41755006 Ry
     xc contribution           =    -109.63755921 Ry
     ewald contribution        =    -219.16096694 Ry

     convergence has been achieved in   9 iterations

     Writing output data file ZnO.save/

     General routines

     Parallel routines

   This run was terminated on:  12:51:23   8Nov2023

   JOB DONE.